p cnf 10 60
2 -6 4 0
8 3 7 0
2 -10 7 0
-6 10 -1 0
-8 -7 3 0
2 3 -9 0
5 -10 -2 0
5 -4 -3 0
10 -4 -10 0
3 5 -10 0
8 1 7 0
-7 -2 1 0
2 -3 7 0
-5 5 -2 0
8 9 10 0
1 10 7 0
-7 5 -9 0
-8 10 3 0
-3 -1 6 0
-8 5 7 0
10 -6 -2 0
10 -1 -9 0
-6 -3 6 0
8 -7 10 0
2 10 -2 0
1 -6 -5 0
-7 4 -10 0
3 -3 -2 0
9 -4 -10 0
4 -4 -2 0
-7 3 -4 0
-7 10 -5 0
-8 5 7 0
1 -1 -9 0
7 6 -9 0
3 4 -10 0
9 2 -4 0
-7 2 7 0
3 6 -2 0
-8 2 -3 0
3 5 6 0
8 -6 6 0
-7 2 3 0
-5 -3 -2 0
1 4 -2 0
-10 -1 6 0
2 5 6 0
-3 -2 6 0
8 9 10 0
3 -4 -9 0
2 10 -1 0
8 10 3 0
2 -9 7 0
1 2 9 0
1 5 -1 0
-7 3 -1 0
4 -10 -9 0
9 -5 -1 0
2 -4 -9 0
-8 3 -3 0
